






































































49 45 
22 10 
51 31 
69 7 
55 13 
58 25 
24 3 
28 44 
29 17 
37 
0 21 
5 54 
36 70 
48 66 
43 59 
73 50 
6 42 
18 64 
19 68 
16 52 
56 33 
60 4 
39 11 
32 8 
47 1 
14 71 
9 26 
74 41 
40 46 
38 
27 12 
72 2 
62 61 
15 
53 
67 63 
20 35 
65 34 
30 

75 

23 
57 76 
